     Program PWSCF v.7.0 starts on 18May2022 at 16:38:15

     K-points division:     npool     =       8
     R & G space division:  proc/nbgrp/npool/nimage =      10

     Waiting for input...
     Reading input from standard input

     Current dimensions of program PWSCF are:
     Max number of different atomic species (ntypx) = 10
     Max number of k-points (npk) =  40000
     Max angular momentum in pseudopotentials (lmaxx) =  4
     file La.pbe-spfn-kjpaw_psl.1.0.0.UPF: wavefunction(s)  5S 5D 4F renormalized
     file Co.pbe-spn-kjpaw_psl.0.3.1.UPF: wavefunction(s)  3P 3D renormalized
     file Co.pbe-spn-kjpaw_psl.0.3.1.UPF: wavefunction(s)  3P 3D renormalized
     file O.pbe-n-kjpaw_psl.1.0.0.UPF: wavefunction(s)  2S 2P renormalized
     Message from routine setup:
     using ibrav=0 with symmetry is DISCOURAGED, use correct ibrav instead

     Using Slab Decomposition

     bravais-lattice index     =            0
     lattice parameter (alat)  =      10.5182  a.u.
     unit-cell volume          =    3247.2352 (a.u.)^3
     number of atoms/cell      =           36
     number of atomic types    =            4
     number of electrons       =       344.00
     number of Kohn-Sham states=          206
     kinetic-energy cutoff     =      45.0000  Ry
     charge density cutoff     =     360.0000  Ry
     scf convergence threshold =      1.0E-06
     mixing beta               =       0.5000
     number of iterations used =            8  plain     mixing
     energy convergence thresh.=      1.0E-04
     force convergence thresh. =      5.0E-03
     press convergence thresh. =      5.0E-01
     Exchange-correlation= SLA  PW   PBX  PBC
                           (   1   4   3   4   0   0   0)
     nstep                     =            1

     celldm(1)=  10.518247  celldm(2)=   0.000000  celldm(3)=   0.000000
     celldm(4)=   0.000000  celldm(5)=   0.000000  celldm(6)=   0.000000

     crystal axes: (cart. coord. in units of alat)
               a(1) = (   1.000000   0.000000   0.000000 )
               a(2) = (   0.000000   2.848189   0.000000 )
               a(3) = (   0.000000   0.000000   0.979749 )

     reciprocal axes: (cart. coord. in units 2 pi/alat)
               b(1) = (  1.000000  0.000000  0.000000 )
               b(2) = (  0.000000  0.351100  0.000000 )
               b(3) = (  0.000000  0.000000  1.020670 )

     PseudoPot. # 1 for La read from file:
     /project2/gagalli/shin/Benchmark_Zhang_Shin/test1/PP/La.pbe-spfn-kjpaw_psl.1.0.0.UPF
     MD5 check sum: 6e6ac421535d279511fd22156ed99225
     Pseudo is Projector augmented-wave + core cor, Zval = 11.0
     Generated using &quot;atomic&quot; code by A. Dal Corso  v.6.2.2
     Shape of augmentation charge: PSQ
     Using radial grid of 1253 points,  8 beta functions with:
                l(1) =   0
                l(2) =   0
                l(3) =   1
                l(4) =   1
                l(5) =   2
                l(6) =   2
                l(7) =   3
                l(8) =   3
     Q(r) pseudized with 0 coefficients

     PseudoPot. # 2 for Co read from file:
     /project2/gagalli/shin/Benchmark_Zhang_Shin/test1/PP/Co.pbe-spn-kjpaw_psl.0.3.1.UPF
     MD5 check sum: 3c0a43779828c046024e4f3be63f8e67
     Pseudo is Projector augmented-wave + core cor, Zval = 17.0
     Generated using &quot;atomic&quot; code by A. Dal Corso  v.6.2.2
     Shape of augmentation charge: PSQ
     Using radial grid of 1193 points,  6 beta functions with:
                l(1) =   0
                l(2) =   0
                l(3) =   1
                l(4) =   1
                l(5) =   2
                l(6) =   2
     Q(r) pseudized with 0 coefficients

     PseudoPot. # 3 for Co read from file:
     /project2/gagalli/shin/Benchmark_Zhang_Shin/test1/PP/Co.pbe-spn-kjpaw_psl.0.3.1.UPF
     MD5 check sum: 3c0a43779828c046024e4f3be63f8e67
     Pseudo is Projector augmented-wave + core cor, Zval = 17.0
     Generated using &quot;atomic&quot; code by A. Dal Corso  v.6.2.2
     Shape of augmentation charge: PSQ
     Using radial grid of 1193 points,  6 beta functions with:
                l(1) =   0
                l(2) =   0
                l(3) =   1
                l(4) =   1
                l(5) =   2
                l(6) =   2
     Q(r) pseudized with 0 coefficients

     PseudoPot. # 4 for O  read from file:
     /project2/gagalli/shin/Benchmark_Zhang_Shin/test1/PP/O.pbe-n-kjpaw_psl.1.0.0.UPF
     MD5 check sum: e99d9cef9b487d1ca56f5b95ecd0fd7a
     Pseudo is Projector augmented-wave + core cor, Zval =  6.0
     Generated using &quot;atomic&quot; code by A. Dal Corso  v.6.3
     Shape of augmentation charge: PSQ
     Using radial grid of 1095 points,  4 beta functions with:
                l(1) =   0
                l(2) =   0
                l(3) =   1
                l(4) =   1
     Q(r) pseudized with 0 coefficients

     atomic species   valence    mass     pseudopotential
        La            11.00   138.90550     La( 1.00)
        Co1           17.00    58.93320     Co( 1.00)
        Co2           17.00    58.93320     Co( 1.00)
        O              6.00    16.00000     O ( 1.00)

     Starting magnetic structure
     atomic species   magnetization
        La           0.000
        Co1          0.500
        Co2         -0.500
        O            0.000

     Simplified LDA+U calculation (l_max = 2) with parameters (eV):
     atomic species    L          U    alpha       J0     beta
        Co1            2     3.0000   0.0000   0.0000   0.0000
        Co2            2     3.0000   0.0000   0.0000   0.0000

      4 Sym. Ops., with inversion, found ( 2 have fractional translation)

   Cartesian axes

     site n.     atom                  positions (alat units)
         1           La  tau(   1) = (   0.9883469   0.3150443   0.4865570  )
         2           La  tau(   2) = (   0.0116531   2.5331448   0.4931920  )
         3           La  tau(   3) = (   0.4883632   2.5331457   0.0033223  )
         4           La  tau(   4) = (   0.5116368   0.3150434   0.9764268  )
         5           La  tau(   5) = (   0.0116531   1.7391389   0.4931920  )
         6           La  tau(   6) = (   0.9883469   1.1090502   0.4865570  )
         7           La  tau(   7) = (   0.5116368   1.1090511   0.9764268  )
         8           La  tau(   8) = (   0.4883632   1.7391380   0.0033223  )
         9           Co1 tau(   9) = (   0.0000000   0.0000000   0.0000000  )
        10           Co2 tau(  10) = (   0.5000000   0.0000000   0.4898745  )
        11           Co1 tau(  11) = (   0.0000000   1.4240946   0.0000000  )
        12           Co2 tau(  12) = (   0.5000000   1.4240946   0.4898745  )
        13           Co2 tau(  13) = (   0.0577228   0.7120473   0.9439061  )
        14           Co2 tau(  14) = (   0.9422772   2.1361418   0.0358429  )
        15           Co1 tau(  15) = (   0.5577819   2.1361418   0.5257357  )
        16           Co1 tau(  16) = (   0.4422181   0.7120473   0.4540133  )
        17           O   tau(  17) = (   0.7520403   2.8205451   0.2443465  )
        18           O   tau(  18) = (   0.2479597   0.0276440   0.7354026  )
        19           O   tau(  19) = (   0.2518775   0.0276468   0.2453701  )
        20           O   tau(  20) = (   0.7481225   2.8205423   0.7343789  )
        21           O   tau(  21) = (   0.2479597   1.3964506   0.7354026  )
        22           O   tau(  22) = (   0.7520403   1.4517385   0.2443465  )
        23           O   tau(  23) = (   0.7481225   1.4517414   0.7343789  )
        24           O   tau(  24) = (   0.2518775   1.3964477   0.2453701  )
        25           O   tau(  25) = (   0.9549525   0.4075561   0.0111245  )
        26           O   tau(  26) = (   0.0450475   2.4406330   0.9686245  )
        27           O   tau(  27) = (   0.4549344   2.4406809   0.4787359  )
        28           O   tau(  28) = (   0.5450656   0.4075081   0.5010131  )
        29           O   tau(  29) = (   0.0450475   1.8316507   0.9686245  )
        30           O   tau(  30) = (   0.9549525   1.0165385   0.0111245  )
        31           O   tau(  31) = (   0.5450656   1.0165864   0.5010131  )
        32           O   tau(  32) = (   0.4549344   1.8316028   0.4787359  )
        33           O   tau(  33) = (   0.1347816   0.7120473   0.6095630  )
        34           O   tau(  34) = (   0.8652185   2.1361418   0.3701860  )
        35           O   tau(  35) = (   0.6348225   2.1361418   0.8600388  )
        36           O   tau(  36) = (   0.3651775   0.7120473   0.1197102  )

     number of k points=    50  Gaussian smearing, width (Ry)=  0.0070
                       cart. coord. in units 2pi/alat
        k(    1) = (   0.0000000   0.0000000   0.0000000), wk =   0.0068027
        k(    2) = (   0.0000000   0.0000000   0.1458099), wk =   0.0136054
        k(    3) = (   0.0000000   0.0000000   0.2916199), wk =   0.0136054
        k(    4) = (   0.0000000   0.0000000   0.4374298), wk =   0.0136054
        k(    5) = (   0.0000000   0.1170334   0.0000000), wk =   0.0136054
        k(    6) = (   0.0000000   0.1170334   0.1458099), wk =   0.0272109
        k(    7) = (   0.0000000   0.1170334   0.2916199), wk =   0.0272109
        k(    8) = (   0.0000000   0.1170334   0.4374298), wk =   0.0272109
        k(    9) = (   0.1428571   0.0000000   0.0000000), wk =   0.0136054
        k(   10) = (   0.1428571   0.0000000   0.1458099), wk =   0.0136054
        k(   11) = (   0.1428571   0.0000000   0.2916199), wk =   0.0136054
        k(   12) = (   0.1428571   0.0000000   0.4374298), wk =   0.0136054
        k(   13) = (   0.1428571   0.1170334   0.0000000), wk =   0.0272109
        k(   14) = (   0.1428571   0.1170334   0.1458099), wk =   0.0272109
        k(   15) = (   0.1428571   0.1170334   0.2916199), wk =   0.0272109
        k(   16) = (   0.1428571   0.1170334   0.4374298), wk =   0.0272109
        k(   17) = (   0.2857143   0.0000000   0.0000000), wk =   0.0136054
        k(   18) = (   0.2857143   0.0000000   0.1458099), wk =   0.0136054
        k(   19) = (   0.2857143   0.0000000   0.2916199), wk =   0.0136054
        k(   20) = (   0.2857143   0.0000000   0.4374298), wk =   0.0136054
        k(   21) = (   0.2857143   0.1170334   0.0000000), wk =   0.0272109
        k(   22) = (   0.2857143   0.1170334   0.1458099), wk =   0.0272109
        k(   23) = (   0.2857143   0.1170334   0.2916199), wk =   0.0272109
        k(   24) = (   0.2857143   0.1170334   0.4374298), wk =   0.0272109
        k(   25) = (   0.4285714   0.0000000   0.0000000), wk =   0.0136054
        k(   26) = (   0.4285714   0.0000000   0.1458099), wk =   0.0136054
        k(   27) = (   0.4285714   0.0000000   0.2916199), wk =   0.0136054
        k(   28) = (   0.4285714   0.0000000   0.4374298), wk =   0.0136054
        k(   29) = (   0.4285714   0.1170334   0.0000000), wk =   0.0272109
        k(   30) = (   0.4285714   0.1170334   0.1458099), wk =   0.0272109
        k(   31) = (   0.4285714   0.1170334   0.2916199), wk =   0.0272109
        k(   32) = (   0.4285714   0.1170334   0.4374298), wk =   0.0272109
        k(   33) = (  -0.1428571   0.0000000   0.1458099), wk =   0.0136054
[...]
     Tr[ns] (up, down, total) =   2.75393  5.24052  7.99444
     Atomic magnetic moment =  -2.48659
     SPIN  1
     eigenvalues:
       0.125  0.192  0.364  1.036  1.037
     eigenvectors (columns):
      -0.823  0.508 -0.018  0.113 -0.227
      -0.009  0.023  1.000 -0.012 -0.004
      -0.023  0.033 -0.013 -0.948 -0.314
       0.368  0.815 -0.015 -0.123  0.431
      -0.432 -0.277  0.003 -0.269  0.815
     occupation matrix ns (before diag.):
       0.201 -0.004 -0.031 -0.074 -0.206
      -0.004  0.364  0.008 -0.003  0.000
      -0.031  0.008  1.035 -0.016 -0.001
      -0.074 -0.003 -0.016  0.353  0.336
      -0.206  0.000 -0.001  0.336  0.802
     SPIN  2
     eigenvalues:
       1.045  1.046  1.047  1.048  1.055
     eigenvectors (columns):
       0.067  0.020  0.535 -0.308  0.783
      -0.937 -0.146 -0.068 -0.311  0.008
       0.224  0.362 -0.536 -0.727  0.051
       0.260 -0.848  0.069 -0.407 -0.207
      -0.004 -0.358 -0.646  0.337  0.584
     occupation matrix ns (before diag.):
       1.052  0.000  0.001 -0.001  0.003
       0.000  1.045  0.001  0.001 -0.000
       0.001  0.001  1.047  0.001  0.000
      -0.001  0.001  0.001  1.047 -0.001
       0.003 -0.000  0.000 -0.001  1.050
     --------------------- ATOM   11 ----------------------
     Tr[ns] (up, down, total) =   5.24021  2.75443  7.99464
     Atomic magnetic moment =   2.48578
     SPIN  1
     eigenvalues:
       1.044  1.046  1.047  1.048  1.055
     eigenvectors (columns):
       0.067 -0.006 -0.538 -0.304  0.784
       0.940 -0.139 -0.066  0.306 -0.009
      -0.224  0.358 -0.527  0.735 -0.055
       0.250  0.856 -0.057 -0.397 -0.208
      -0.008  0.346  0.652  0.341  0.583
     occupation matrix ns (before diag.):
       1.052 -0.000 -0.001 -0.001  0.003
      -0.000  1.045  0.001 -0.001  0.000
      -0.001  0.001  1.047 -0.001 -0.000
      -0.001 -0.001 -0.001  1.047 -0.001
       0.003  0.000 -0.000 -0.001  1.050
     SPIN  2
     eigenvalues:
       0.125  0.192  0.364  1.036  1.037
     eigenvectors (columns):
      -0.824  0.508 -0.019  0.117 -0.223
       0.009 -0.023 -1.000  0.013  0.003
       0.027 -0.035  0.014  0.947  0.316
       0.368  0.815 -0.016 -0.124  0.430
      -0.430 -0.277  0.002 -0.270  0.816
     occupation matrix ns (before diag.):
       0.200  0.004  0.035 -0.073 -0.204
       0.004  0.364  0.009  0.002 -0.001
       0.035  0.009  1.034  0.015  0.003
      -0.073  0.002  0.015  0.352  0.335
      -0.204 -0.001  0.003  0.335  0.803
     --------------------- ATOM   12 ----------------------
     Tr[ns] (up, down, total) =   2.75393  5.24052  7.99444
     Atomic magnetic moment =  -2.48659
     SPIN  1
     eigenvalues:
       0.125  0.192  0.364  1.036  1.037
     eigenvectors (columns):
       0.823 -0.508 -0.018 -0.113  0.227
       0.009 -0.023  1.000  0.012  0.004
      -0.023  0.033  0.013 -0.948 -0.314
      -0.368 -0.815 -0.015  0.123 -0.431
      -0.432 -0.277 -0.003 -0.269  0.815
     occupation matrix ns (before diag.):
       0.201 -0.004  0.031 -0.074  0.206
      -0.004  0.364 -0.008 -0.003 -0.000
       0.031 -0.008  1.035  0.016 -0.001
      -0.074 -0.003  0.016  0.353 -0.336
       0.206 -0.000 -0.001 -0.336  0.802
     SPIN  2
     eigenvalues:
       1.045  1.046  1.047  1.048  1.055
     eigenvectors (columns):
       0.067  0.020 -0.535 -0.308 -0.783
      -0.937 -0.146  0.068 -0.311 -0.008
      -0.224 -0.362 -0.536  0.727  0.051
       0.260 -0.848 -0.069 -0.407  0.207
       0.004  0.358 -0.646 -0.337  0.584
     occupation matrix ns (before diag.):
       1.052  0.000 -0.001 -0.001 -0.003
       0.000  1.045 -0.001  0.001  0.000
      -0.001 -0.001  1.047 -0.001  0.000
      -0.001  0.001 -0.001  1.047  0.001
      -0.003  0.000  0.000  0.001  1.050
     --------------------- ATOM   13 ----------------------
     Tr[ns] (up, down, total) =   2.81883  5.20248  8.02131
     Atomic magnetic moment =  -2.38365
     SPIN  1
     eigenvalues:
       0.204  0.234  0.299  1.040  1.041
     eigenvectors (columns):
      -0.666  0.000  0.661 -0.346  0.000
      -0.640  0.000 -0.269  0.720 -0.000
       0.000  0.439 -0.000 -0.000 -0.899
       0.383 -0.000  0.701  0.602 -0.000
       0.000  0.899 -0.000  0.000  0.439
     occupation matrix ns (before diag.):
       0.345 -0.225 -0.000 -0.130  0.000
      -0.225  0.644 -0.000  0.345  0.000
      -0.000 -0.000  0.886  0.000 -0.318
      -0.130  0.345  0.000  0.554 -0.000
       0.000  0.000 -0.318 -0.000  0.390
     SPIN  2
     eigenvalues:
       1.017  1.043  1.044  1.049  1.050
     eigenvectors (columns):
       0.540 -0.705  0.000 -0.459  0.000
      -0.104 -0.597  0.000  0.795 -0.000
      -0.000  0.000  0.416 -0.000 -0.909
       0.835  0.382 -0.000  0.396 -0.000
       0.000  0.000  0.909 -0.000  0.416
     occupation matrix ns (before diag.):
       1.037 -0.001 -0.000 -0.013  0.000
      -0.001  1.046 -0.000  0.004  0.000
      -0.000 -0.000  1.049  0.000 -0.002
      -0.013  0.004  0.000  1.026 -0.000
       0.000  0.000 -0.002 -0.000  1.045
     --------------------- ATOM   14 ----------------------
     Tr[ns] (up, down, total) =   2.81883  5.20248  8.02131
     Atomic magnetic moment =  -2.38365
     SPIN  1
     eigenvalues:
       0.204  0.234  0.299  1.040  1.041
     eigenvectors (columns):
      -0.666  0.000  0.661 -0.346  0.000
      -0.640  0.000 -0.269  0.720 -0.000
       0.000  0.439 -0.000 -0.000 -0.899
       0.383 -0.000  0.701  0.602 -0.000
       0.000  0.899 -0.000  0.000  0.439
     occupation matrix ns (before diag.):
       0.345 -0.225 -0.000 -0.130  0.000
      -0.225  0.644 -0.000  0.345  0.000
      -0.000 -0.000  0.886  0.000 -0.318
      -0.130  0.345  0.000  0.554 -0.000
       0.000  0.000 -0.318 -0.000  0.390
     SPIN  2
     eigenvalues:
       1.017  1.043  1.044  1.049  1.050
     eigenvectors (columns):
       0.540 -0.705  0.000 -0.459  0.000
      -0.104 -0.597  0.000  0.795 -0.000
      -0.000  0.000  0.416 -0.000 -0.909
       0.835  0.382 -0.000  0.396 -0.000
       0.000  0.000  0.909 -0.000  0.416
     occupation matrix ns (before diag.):
       1.037 -0.001 -0.000 -0.013  0.000
      -0.001  1.046 -0.000  0.004  0.000
      -0.000 -0.000  1.049  0.000 -0.002
      -0.013  0.004  0.000  1.026 -0.000
       0.000  0.000 -0.002 -0.000  1.045
     --------------------- ATOM   15 ----------------------
     Tr[ns] (up, down, total) =   5.20258  2.81850  8.02108
     Atomic magnetic moment =   2.38408
     SPIN  1
     eigenvalues:
       1.017  1.043  1.044  1.049  1.050
     eigenvectors (columns):
       0.540 -0.704  0.000 -0.460  0.000
       0.104  0.599 -0.000 -0.794 -0.000
      -0.000 -0.000 -0.416  0.000  0.909
       0.835  0.381 -0.000  0.397 -0.000
       0.000  0.000  0.909 -0.000  0.416
     occupation matrix ns (before diag.):
       1.037  0.001 -0.000 -0.012  0.000
       0.001  1.046 -0.000 -0.004  0.000
      -0.000 -0.000  1.049  0.000  0.002
      -0.012 -0.004  0.000  1.026 -0.000
       0.000  0.000  0.002 -0.000  1.045
     SPIN  2
     eigenvalues:
       0.204  0.234  0.299  1.040  1.041
     eigenvectors (columns):
      -0.667  0.000  0.661 -0.345  0.000
       0.639 -0.000  0.269 -0.720  0.000
      -0.000 -0.439  0.000  0.000  0.898
       0.383 -0.000  0.701  0.602 -0.000
       0.000  0.898 -0.000  0.000  0.439
     occupation matrix ns (before diag.):
       0.345  0.224 -0.000 -0.130  0.000
       0.224  0.645 -0.000 -0.345  0.000
      -0.000 -0.000  0.886  0.000  0.318
      -0.130 -0.345  0.000  0.553 -0.000
       0.000  0.000  0.318 -0.000  0.390
     --------------------- ATOM   16 ----------------------
     Tr[ns] (up, down, total) =   5.20258  2.81850  8.02108
     Atomic magnetic moment =   2.38408
     SPIN  1
     eigenvalues:
       1.017  1.043  1.044  1.049  1.050
     eigenvectors (columns):
       0.540 -0.704  0.000 -0.460  0.000
       0.104  0.599 -0.000 -0.794 -0.000
      -0.000 -0.000 -0.416  0.000  0.909
       0.835  0.381 -0.000  0.397 -0.000
       0.000  0.000  0.909 -0.000  0.416
     occupation matrix ns (before diag.):
       1.037  0.001 -0.000 -0.012  0.000
       0.001  1.046 -0.000 -0.004  0.000
      -0.000 -0.000  1.049  0.000  0.002
      -0.012 -0.004  0.000  1.026 -0.000
       0.000  0.000  0.002 -0.000  1.045
     SPIN  2
     eigenvalues:
       0.204  0.234  0.299  1.040  1.041
     eigenvectors (columns):
      -0.667  0.000  0.661 -0.345  0.000
       0.639 -0.000  0.269 -0.720  0.000
      -0.000 -0.439  0.000  0.000  0.898
       0.383 -0.000  0.701  0.602 -0.000
       0.000  0.898 -0.000  0.000  0.439
     occupation matrix ns (before diag.):
       0.345  0.224 -0.000 -0.130  0.000
       0.224  0.645 -0.000 -0.345  0.000
      -0.000 -0.000  0.886  0.000  0.318
      -0.130 -0.345  0.000  0.553 -0.000
       0.000  0.000  0.318 -0.000  0.390

     Number of occupied Hubbard levels =   64.0629

     Number of k-points >= 100: set verbosity='high' to print the bands.

     the Fermi energy is    13.6383 ev

!    total energy              =   -7514.38620401 Ry

     total all-electron energy =   -161202.374861 Ry
     estimated scf accuracy    <       0.00000036 Ry
     smearing contrib. (-TS)   =      -0.00000000 Ry
     internal energy E=F+TS    =   -7514.38620401 Ry

     The total energy is F=E-TS. E is the sum of the following terms:
     one-electron contribution =   -2072.98210606 Ry
     hartree contribution      =    1264.97740615 Ry
     xc contribution           =    -980.75917061 Ry
     ewald contribution        =   -2163.17906674 Ry
     Hubbard energy            =       0.18660834 Ry
     one-center paw contrib.   =   -3562.62987509 Ry

     total magnetization       =    -0.00 Bohr mag/cell
     absolute magnetization    =    21.47 Bohr mag/cell

     convergence has been achieved in  57 iterations

     Forces acting on atoms (cartesian axes, Ry/au):

     atom    1 type  1   force =    -0.00482033    0.02908866    0.00491869
     atom    2 type  1   force =     0.00482033   -0.02908866   -0.00491869
     atom    3 type  1   force =    -0.00481735   -0.02910147   -0.00494493
     atom    4 type  1   force =     0.00481735    0.02910147    0.00494493
     atom    5 type  1   force =     0.00482033    0.02908866   -0.00491869
     atom    6 type  1   force =    -0.00482033   -0.02908866    0.00491869
     atom    7 type  1   force =     0.00481735   -0.02910147    0.00494493
     atom    8 type  1   force =    -0.00481735    0.02910147   -0.00494493
     atom    9 type  2   force =     0.00000000    0.00000000    0.00000000
     atom   10 type  3   force =     0.00000000    0.00000000    0.00000000
     atom   11 type  2   force =     0.00000000    0.00000000    0.00000000
     atom   12 type  3   force =     0.00000000    0.00000000    0.00000000
     atom   13 type  3   force =    -0.00132902    0.00000000   -0.00320217
     atom   14 type  3   force =     0.00132902    0.00000000    0.00320217
     atom   15 type  2   force =    -0.00144955    0.00000000    0.00307124
     atom   16 type  2   force =     0.00144955    0.00000000   -0.00307124
     atom   17 type  4   force =    -0.00496727   -0.00334065    0.00379149
     atom   18 type  4   force =     0.00496727    0.00334065   -0.00379149
     atom   19 type  4   force =    -0.00401487    0.00331540   -0.00282311
     atom   20 type  4   force =     0.00401487   -0.00331540    0.00282311
     atom   21 type  4   force =     0.00496727   -0.00334065   -0.00379149
     atom   22 type  4   force =    -0.00496727    0.00334065    0.00379149
     atom   23 type  4   force =     0.00401487    0.00331540    0.00282311
     atom   24 type  4   force =    -0.00401487   -0.00331540   -0.00282311
     atom   25 type  4   force =    -0.05242321   -0.08830629    0.02081432
     atom   26 type  4   force =     0.05242321    0.08830629   -0.02081432
     atom   27 type  4   force =    -0.05229440    0.08812721   -0.02077057
     atom   28 type  4   force =     0.05229440   -0.08812721    0.02077057
     atom   29 type  4   force =     0.05242321   -0.08830629   -0.02081432
     atom   30 type  4   force =    -0.05242321    0.08830629    0.02081432
     atom   31 type  4   force =     0.05229440    0.08812721    0.02077057
     atom   32 type  4   force =    -0.05229440   -0.08812721   -0.02077057
     atom   33 type  4   force =    -0.04853447    0.00000000   -0.04348615
     atom   34 type  4   force =     0.04853447    0.00000000    0.04348615
     atom   35 type  4   force =    -0.04859067    0.00000000    0.04353309
     atom   36 type  4   force =     0.04859067    0.00000000   -0.04353309

     Total force =     0.334954     Total SCF correction =     0.000589

     Computing stress (Cartesian axis) and pressure

          total   stress  (Ry/bohr**3)                   (kbar)     P=     -227.12
  -0.00162430   0.00000000  -0.00000011         -238.94        0.00       -0.02
   0.00000000  -0.00138252   0.00000000            0.00     -203.38        0.00
  -0.00000011   0.00000000  -0.00162506           -0.02        0.00     -239.05

     BFGS Geometry Optimization
     Energy error            =      0.0E+00 Ry
     Gradient error          =      8.8E-02 Ry/Bohr
     Cell gradient error     =      2.4E+02 kbar

     number of scf cycles    =   1
     number of bfgs steps    =   0

     enthalpy           new  =   -7514.3862040122 Ry

     new trust radius        =       0.4630164850 bohr

     The maximum number of steps has been reached.

     End of BFGS Geometry Optimization
     new unit-cell volume =   2885.50440 a.u.^3 (   427.58764 Ang^3 )
     density =      7.38918 g/cm^3

CELL_PARAMETERS (angstrom)
   5.339994308   0.000000000   0.000000000
   0.000000000  15.305139926   0.000000000
   0.000000000   0.000000000   5.231750697

ATOMIC_POSITIONS (angstrom)
La            5.2753196363        1.7077955623        2.6006576031
La            0.0646746713       13.5973443638        2.6310930935
La            2.6054112162       13.5973426161        0.0152300280
La            2.7345830914        1.7077973101        5.2165206696
La            0.0646746713        9.3603655254        2.6310930935
La            5.2753196363        5.9447744007        2.6006576031
La            2.7345830914        5.9447726530        5.2165206696
La            2.6054112162        9.3603672732        0.0152300280
Co1           0.0000000000        0.0000000000        0.0000000000
Co2           2.6699971543        0.0000000000        2.6158753488
Co1           0.0000000000        7.6525699631        0.0000000000
Co2           2.6699971543        7.6525699631        2.6158753488
Co2           0.3075647327        3.8262849820        5.0387278175
Co2           5.0324296555       11.4788549451        0.1930228790
Co1           2.9778163794       11.4788549451        2.8089292786
Co1           2.3621779281        3.8262849820        2.4228214189
O             4.0133693483       15.1548844851        1.3067077964
O             1.3266249593        0.1502554411        3.9250430518
O             1.3429860451        0.1502579833        1.3088156240
O             3.9970082625       15.1548819429        3.9229349210
O             1.3266249593        7.5023145220        3.9250430518
O             4.0133693483        7.8028254042        1.3067077964
O             3.9970082625        7.8028279463        3.9229349210
O             1.3429860451        7.5023119798        1.3088156240
O             5.0728263546        2.1449445296        0.0699707787
O             0.2671679530       13.1601949380        5.1617799543
O             2.4027980643       13.1603610131        2.5458515560
O             2.9371962433        2.1447784545        2.6858991405
O             0.2671679530        9.7975149513        5.1617799543
O             5.0728263546        5.5076254345        0.0699707787
O             2.9371962433        5.5077915086        2.6858991405
O             2.4027980643        9.7973488772        2.5458515560
O             0.6950923418        3.8262849820        3.2329217994
O             4.6449020454       11.4788549451        1.9988288972
O             3.3652798606       11.4788549451        4.6146122043
O             1.9747144479        3.8262849820        0.6171384922

     Writing config-only to output data dir ./LSCO.save/
     NEW-OLD atomic charge density approx. for the potential

     Check: negative core charge=   -0.000024
     extrapolated charge  300.90584, renormalised to  344.00000
     Generating pointlists ...
     new r_m :   0.1733 (alat units)  1.8223 (a.u.) for type    1
 Atomic wfc used for LDA+U Projector are NOT orthogonalized

     Writing all to output data dir ./LSCO.save/

     General routines

     Parallel routines

     Hubbard U routines

   This run was terminated on:  17:13:50  18May2022

   JOB DONE.