     Program PWSCF v.6.8 starts on  2Mar2022 at 19: 9:16

     K-points division:     npool     =      16
     R & G space division:  proc/nbgrp/npool/nimage =      64

     Waiting for input...
     Reading input from standard input
Warning: card  &CELL ignored
Warning: card  CELL_DOFREE='XYZ' ignored
Warning: card / ignored

     Current dimensions of program PWSCF are:
     Max number of different atomic species (ntypx) = 10
     Max number of k-points (npk) =  40000
     Max angular momentum in pseudopotentials (lmaxx) =  4
     file Sr.pbe-spn-kjpaw_psl.1.0.0.UPF: wavefunction(s)  4P renormalized
     file Co.pbe-spn-kjpaw_psl.0.3.1.UPF: wavefunction(s)  3P 3D renormalized
     file Co.pbe-spn-kjpaw_psl.0.3.1.UPF: wavefunction(s)  3P 3D renormalized
     file O.pbe-n-kjpaw_psl.1.0.0.UPF: wavefunction(s)  2S 2P renormalized
     Message from routine setup:
     using ibrav=0 with symmetry is DISCOURAGED, use correct ibrav instead

     Using Slab Decomposition

     bravais-lattice index     =            0
     lattice parameter (alat)  =      10.5182  a.u.
     unit-cell volume          =    3247.2352 (a.u.)^3
     number of atoms/cell      =           36
     number of atomic types    =            4
     number of electrons       =       336.00 (up: 168.00, down: 168.00)
     number of Kohn-Sham states=          240
     kinetic-energy cutoff     =      90.0000  Ry
     charge density cutoff     =     720.0000  Ry
     scf convergence threshold =      1.0E-06
     mixing beta               =       0.5000
     number of iterations used =            8  plain     mixing
     Exchange-correlation= SLA  PW   PBX  PBC
                           (   1   4   3   4   0   0   0)

     celldm(1)=  10.518247  celldm(2)=   0.000000  celldm(3)=   0.000000
     celldm(4)=   0.000000  celldm(5)=   0.000000  celldm(6)=   0.000000

     crystal axes: (cart. coord. in units of alat)
               a(1) = (   1.000000   0.000000   0.000000 )
               a(2) = (   0.000000   2.848189   0.000000 )
               a(3) = (   0.000000   0.000000   0.979749 )

     reciprocal axes: (cart. coord. in units 2 pi/alat)
               b(1) = (  1.000000  0.000000  0.000000 )
               b(2) = (  0.000000  0.351100  0.000000 )
               b(3) = (  0.000000  0.000000  1.020670 )

     PseudoPot. # 1 for Sr read from file:
     /global/cscratch1/sd/yjshin90/Cobalt_OOV/PP/Sr.pbe-spn-kjpaw_psl.1.0.0.UPF
     MD5 check sum: a3c6d0287e6b0f325c5350c23079ab60
     Pseudo is Projector augmented-wave + core cor, Zval = 10.0
     Generated using &quot;atomic&quot; code by A. Dal Corso  v.6.2.2
     Shape of augmentation charge: PSQ
     Using radial grid of 1221 points,  6 beta functions with:
                l(1) =   0
                l(2) =   0
                l(3) =   1
                l(4) =   1
                l(5) =   2
                l(6) =   2
     Q(r) pseudized with 0 coefficients

     PseudoPot. # 2 for Co read from file:
     /global/cscratch1/sd/yjshin90/Cobalt_OOV/PP/Co.pbe-spn-kjpaw_psl.0.3.1.UPF
     MD5 check sum: 3c0a43779828c046024e4f3be63f8e67
     Pseudo is Projector augmented-wave + core cor, Zval = 17.0
     Generated using &quot;atomic&quot; code by A. Dal Corso  v.6.2.2
     Shape of augmentation charge: PSQ
     Using radial grid of 1193 points,  6 beta functions with:
                l(1) =   0
                l(2) =   0
                l(3) =   1
                l(4) =   1
                l(5) =   2
                l(6) =   2
     Q(r) pseudized with 0 coefficients

     PseudoPot. # 3 for Co read from file:
     /global/cscratch1/sd/yjshin90/Cobalt_OOV/PP/Co.pbe-spn-kjpaw_psl.0.3.1.UPF
     MD5 check sum: 3c0a43779828c046024e4f3be63f8e67
     Pseudo is Projector augmented-wave + core cor, Zval = 17.0
     Generated using &quot;atomic&quot; code by A. Dal Corso  v.6.2.2
     Shape of augmentation charge: PSQ
     Using radial grid of 1193 points,  6 beta functions with:
                l(1) =   0
                l(2) =   0
                l(3) =   1
                l(4) =   1
                l(5) =   2
                l(6) =   2
     Q(r) pseudized with 0 coefficients

     PseudoPot. # 4 for O  read from file:
     /global/cscratch1/sd/yjshin90/Cobalt_OOV/PP/O.pbe-n-kjpaw_psl.1.0.0.UPF
     MD5 check sum: e99d9cef9b487d1ca56f5b95ecd0fd7a
     Pseudo is Projector augmented-wave + core cor, Zval =  6.0
     Generated using &quot;atomic&quot; code by A. Dal Corso  v.6.3
     Shape of augmentation charge: PSQ
     Using radial grid of 1095 points,  4 beta functions with:
                l(1) =   0
                l(2) =   0
                l(3) =   1
                l(4) =   1
     Q(r) pseudized with 0 coefficients

     atomic species   valence    mass     pseudopotential
        Sr            10.00    87.62000     Sr( 1.00)
        Co1           17.00    58.93320     Co( 1.00)
        Co2           17.00    58.93320     Co( 1.00)
        O              6.00    16.00000     O ( 1.00)

     Starting magnetic structure
     atomic species   magnetization
        Sr           0.000
        Co1          0.400
        Co2         -0.400
        O            0.000

     Simplified LDA+U calculation (l_max = 2) with parameters (eV):
     atomic species    L          U    alpha       J0     beta
        Co1            2     3.0000   0.0000   0.0000   0.0000
        Co2            2     3.0000   0.0000   0.0000   0.0000

      4 Sym. Ops., with inversion, found ( 2 have fractional translation)

   Cartesian axes

     site n.     atom                  positions (alat units)
         1           Sr  tau(   1) = (   0.9883469   0.3150443   0.4865570  )
         2           Sr  tau(   2) = (   0.0116531   2.5331448   0.4931920  )
         3           Sr  tau(   3) = (   0.4883632   2.5331457   0.0033223  )
         4           Sr  tau(   4) = (   0.5116368   0.3150434   0.9764268  )
         5           Sr  tau(   5) = (   0.0116531   1.7391389   0.4931920  )
         6           Sr  tau(   6) = (   0.9883469   1.1090502   0.4865570  )
         7           Sr  tau(   7) = (   0.5116368   1.1090511   0.9764268  )
         8           Sr  tau(   8) = (   0.4883632   1.7391380   0.0033223  )
         9           Co1 tau(   9) = (   0.0000000   0.0000000   0.0000000  )
        10           Co2 tau(  10) = (   0.5000000   0.0000000   0.4898745  )
        11           Co1 tau(  11) = (   0.0000000   1.4240946   0.0000000  )
        12           Co2 tau(  12) = (   0.5000000   1.4240946   0.4898745  )
        13           Co2 tau(  13) = (   0.0577228   0.7120473   0.9439061  )
        14           Co2 tau(  14) = (   0.9422772   2.1361418   0.0358429  )
        15           Co1 tau(  15) = (   0.5577819   2.1361418   0.5257357  )
        16           Co1 tau(  16) = (   0.4422181   0.7120473   0.4540133  )
        17           O   tau(  17) = (   0.7520403   2.8205451   0.2443465  )
        18           O   tau(  18) = (   0.2479597   0.0276440   0.7354026  )
        19           O   tau(  19) = (   0.2518775   0.0276468   0.2453701  )
        20           O   tau(  20) = (   0.7481225   2.8205423   0.7343789  )
        21           O   tau(  21) = (   0.2479597   1.3964506   0.7354026  )
        22           O   tau(  22) = (   0.7520403   1.4517385   0.2443465  )
        23           O   tau(  23) = (   0.7481225   1.4517414   0.7343789  )
        24           O   tau(  24) = (   0.2518775   1.3964477   0.2453701  )
        25           O   tau(  25) = (   0.9549525   0.4075561   0.0111245  )
        26           O   tau(  26) = (   0.0450475   2.4406330   0.9686245  )
        27           O   tau(  27) = (   0.4549344   2.4406809   0.4787359  )
        28           O   tau(  28) = (   0.5450656   0.4075081   0.5010131  )
        29           O   tau(  29) = (   0.0450475   1.8316507   0.9686245  )
        30           O   tau(  30) = (   0.9549525   1.0165385   0.0111245  )
        31           O   tau(  31) = (   0.5450656   1.0165864   0.5010131  )
        32           O   tau(  32) = (   0.4549344   1.8316028   0.4787359  )
        33           O   tau(  33) = (   0.1347816   0.7120473   0.6095630  )
        34           O   tau(  34) = (   0.8652185   2.1361418   0.3701860  )
        35           O   tau(  35) = (   0.6348225   2.1361418   0.8600388  )
        36           O   tau(  36) = (   0.3651775   0.7120473   0.1197102  )

     number of k points=    40 (tetrahedron method)
                       cart. coord. in units 2pi/alat
        k(    1) = (   0.0000000   0.0000000   0.0000000), wk =   0.0092593
        k(    2) = (   0.0000000   0.0000000   0.1701116), wk =   0.0185185
        k(    3) = (   0.0000000   0.0000000   0.3402232), wk =   0.0185185
        k(    4) = (   0.0000000   0.0000000  -0.5103348), wk =   0.0092593
        k(    5) = (   0.0000000   0.1170334   0.0000000), wk =   0.0185185
        k(    6) = (   0.0000000   0.1170334   0.1701116), wk =   0.0370370
        k(    7) = (   0.0000000   0.1170334   0.3402232), wk =   0.0370370
        k(    8) = (   0.0000000   0.1170334  -0.5103348), wk =   0.0185185
        k(    9) = (   0.1666667   0.0000000   0.0000000), wk =   0.0185185
        k(   10) = (   0.1666667   0.0000000   0.1701116), wk =   0.0185185
        k(   11) = (   0.1666667   0.0000000   0.3402232), wk =   0.0185185
        k(   12) = (   0.1666667   0.0000000  -0.5103348), wk =   0.0185185
        k(   13) = (   0.1666667   0.1170334   0.0000000), wk =   0.0370370
        k(   14) = (   0.1666667   0.1170334   0.1701116), wk =   0.0370370
        k(   15) = (   0.1666667   0.1170334   0.3402232), wk =   0.0370370
        k(   16) = (   0.1666667   0.1170334  -0.5103348), wk =   0.0370370
        k(   17) = (   0.3333333   0.0000000   0.0000000), wk =   0.0185185
        k(   18) = (   0.3333333   0.0000000   0.1701116), wk =   0.0185185
        k(   19) = (   0.3333333   0.0000000   0.3402232), wk =   0.0185185
        k(   20) = (   0.3333333   0.0000000  -0.5103348), wk =   0.0185185
        k(   21) = (   0.3333333   0.1170334   0.0000000), wk =   0.0370370
        k(   22) = (   0.3333333   0.1170334   0.1701116), wk =   0.0370370
        k(   23) = (   0.3333333   0.1170334   0.3402232), wk =   0.0370370
        k(   24) = (   0.3333333   0.1170334  -0.5103348), wk =   0.0370370
        k(   25) = (  -0.5000000   0.0000000   0.0000000), wk =   0.0092593
        k(   26) = (  -0.5000000   0.0000000   0.1701116), wk =   0.0185185
        k(   27) = (  -0.5000000   0.0000000   0.3402232), wk =   0.0185185
        k(   28) = (  -0.5000000   0.0000000  -0.5103348), wk =   0.0092593
        k(   29) = (  -0.5000000   0.1170334   0.0000000), wk =   0.0185185
        k(   30) = (  -0.5000000   0.1170334   0.1701116), wk =   0.0370370
        k(   31) = (  -0.5000000   0.1170334   0.3402232), wk =   0.0370370
        k(   32) = (  -0.5000000   0.1170334  -0.5103348), wk =   0.0185185
        k(   33) = (  -0.1666667   0.0000000   0.1701116), wk =   0.0185185
        k(   34) = (  -0.1666667   0.0000000   0.3402232), wk =   0.0185185
        k(   35) = (  -0.1666667  -0.1170334   0.1701116), wk =   0.0370370
[...]
     ethr =  1.95E-09,  avg # of iterations = 14.4

[...]

     iteration #  4     ecut=    90.00 Ry     beta= 0.50
     CG style diagonalization
     c_bands:  2 eigenvalues not converged
     ethr =  5.23E-10,  avg # of iterations =  5.5

[...]

     total energy              =   -5930.10599642 Ry
     estimated scf accuracy    <       0.00000187 Ry

[...]

     iteration #  5     ecut=    90.00 Ry     beta= 0.50
     CG style diagonalization
     ethr =  5.23E-10,  avg # of iterations =  4.1

     RESET ns to initial values (iter <= mixing_fixed_ns)

     Magnetic moment per site  (integrated on atomic sphere of radius R)
     atom   1 (R=0.182)  charge=  7.0417  magn=  0.0007
     atom   2 (R=0.182)  charge=  7.0417  magn=  0.0007
     atom   3 (R=0.182)  charge=  7.0417  magn= -0.0006
     atom   4 (R=0.182)  charge=  7.0417  magn= -0.0006
     atom   5 (R=0.182)  charge=  7.0417  magn=  0.0007
     atom   6 (R=0.182)  charge=  7.0417  magn=  0.0007
     atom   7 (R=0.182)  charge=  7.0417  magn= -0.0006
     atom   8 (R=0.182)  charge=  7.0417  magn= -0.0006
     atom   9 (R=0.134)  charge= 13.6929  magn=  2.5832
     atom  10 (R=0.134)  charge= 13.6915  magn= -2.5832
     atom  11 (R=0.134)  charge= 13.6929  magn=  2.5832
     atom  12 (R=0.134)  charge= 13.6915  magn= -2.5832
     atom  13 (R=0.134)  charge= 13.7249  magn= -2.5287
     atom  14 (R=0.134)  charge= 13.7249  magn= -2.5287
     atom  15 (R=0.134)  charge= 13.7262  magn=  2.5291
     atom  16 (R=0.134)  charge= 13.7262  magn=  2.5291
     atom  17 (R=0.134)  charge=  4.9959  magn=  0.0767
     atom  18 (R=0.134)  charge=  4.9959  magn=  0.0767
     atom  19 (R=0.134)  charge=  4.9959  magn= -0.0766
     atom  20 (R=0.134)  charge=  4.9959  magn= -0.0766
     atom  21 (R=0.134)  charge=  4.9959  magn=  0.0767
     atom  22 (R=0.134)  charge=  4.9959  magn=  0.0767
     atom  23 (R=0.134)  charge=  4.9959  magn= -0.0766
     atom  24 (R=0.134)  charge=  4.9959  magn= -0.0766
     atom  25 (R=0.134)  charge=  4.9575  magn= -0.1598
     atom  26 (R=0.134)  charge=  4.9575  magn= -0.1598
     atom  27 (R=0.134)  charge=  4.9574  magn=  0.1597
     atom  28 (R=0.134)  charge=  4.9574  magn=  0.1597
     atom  29 (R=0.134)  charge=  4.9575  magn= -0.1598
     atom  30 (R=0.134)  charge=  4.9575  magn= -0.1598
     atom  31 (R=0.134)  charge=  4.9574  magn=  0.1597
     atom  32 (R=0.134)  charge=  4.9574  magn=  0.1597
     atom  33 (R=0.134)  charge=  4.9910  magn= -0.0075
     atom  34 (R=0.134)  charge=  4.9910  magn= -0.0075
     atom  35 (R=0.134)  charge=  4.9911  magn=  0.0078
     atom  36 (R=0.134)  charge=  4.9911  magn=  0.0078

     End of self-consistent calculation
 --- enter write_ns ---
 LDA+U parameters:
U( 2)     =  3.00000000
U( 3)     =  3.00000000
atom    9   Tr[ns(na)] (up, down, total) =   4.93009  2.42079  7.35088
   spin  1
    eigenvalues:
  0.968  0.984  0.990  0.993  0.994
    eigenvectors:
  0.003  0.212  0.000  0.778  0.007
  0.979  0.013  0.001  0.000  0.007
  0.006  0.001  0.624  0.002  0.368
  0.012  0.726  0.017  0.219  0.026
  0.000  0.049  0.357  0.001  0.592
    occupations:
  0.991  0.001 -0.000 -0.004 -0.001
  0.001  0.968 -0.002  0.002 -0.001
 -0.000 -0.002  0.992 -0.000  0.002
 -0.004  0.002 -0.000  0.986 -0.002
 -0.001 -0.001  0.002 -0.002  0.992
   spin  2
    eigenvalues:
  0.233  0.238  0.384  0.575  0.991
    eigenvectors:
  0.772  0.172  0.038  0.019  0.000
  0.003  0.000  0.174  0.814  0.008
  0.034  0.212  0.007  0.021  0.725
  0.127  0.066  0.673  0.129  0.005
  0.063  0.550  0.108  0.018  0.261
    occupations:
  0.246  0.031  0.002  0.041  0.018
  0.031  0.544 -0.019  0.054  0.055
  0.002 -0.019  0.792  0.075 -0.318
  0.041  0.054  0.075  0.383  0.027
  0.018  0.055 -0.318  0.027  0.456
atomic mag. moment =   2.50930
atom   10   Tr[ns(na)] (up, down, total) =   2.42019  4.93045  7.35064
   spin  1
    eigenvalues:
  0.232  0.237  0.384  0.575  0.991
    eigenvectors:
  0.772  0.172  0.037  0.019  0.000
  0.003  0.000  0.176  0.812  0.008
  0.034  0.211  0.007  0.021  0.727
  0.127  0.066  0.671  0.130  0.005
  0.064  0.550  0.109  0.018  0.259
    occupations:
  0.245 -0.031  0.003  0.041 -0.018
 -0.031  0.544  0.019 -0.054  0.055
  0.003  0.019  0.794  0.075  0.317
  0.041 -0.054  0.075  0.383 -0.028
 -0.018  0.055  0.317 -0.028  0.454
   spin  2
    eigenvalues:
  0.968  0.984  0.990  0.993  0.994
    eigenvectors:
  0.003  0.212  0.000  0.778  0.007
  0.979  0.013  0.001  0.000  0.007
  0.006  0.001  0.626  0.002  0.366
  0.012  0.725  0.017  0.219  0.026
  0.000  0.049  0.356  0.001  0.593
    occupations:
  0.991 -0.001 -0.000 -0.004  0.001
 -0.001  0.969  0.002 -0.002 -0.001
 -0.000  0.002  0.992 -0.000 -0.002
 -0.004 -0.002 -0.000  0.986  0.002
  0.001 -0.001 -0.002  0.002  0.992
atomic mag. moment =  -2.51027
atom   11   Tr[ns(na)] (up, down, total) =   4.93009  2.42079  7.35088
   spin  1
    eigenvalues:
  0.968  0.984  0.990  0.993  0.994
    eigenvectors:
  0.003  0.212  0.000  0.778  0.007
  0.979  0.013  0.001  0.000  0.007
  0.006  0.001  0.624  0.002  0.368
  0.012  0.726  0.017  0.219  0.026
  0.000  0.049  0.357  0.001  0.592
    occupations:
  0.991  0.001  0.000 -0.004  0.001
  0.001  0.968  0.002  0.002  0.001
  0.000  0.002  0.992  0.000  0.002
 -0.004  0.002  0.000  0.986  0.002
  0.001  0.001  0.002  0.002  0.992
   spin  2
    eigenvalues:
  0.233  0.238  0.384  0.575  0.991
    eigenvectors:
  0.772  0.172  0.038  0.019  0.000
  0.003  0.000  0.174  0.814  0.008
  0.034  0.212  0.007  0.021  0.725
  0.127  0.066  0.673  0.129  0.005
  0.063  0.550  0.108  0.018  0.261
    occupations:
  0.246  0.031 -0.002  0.041 -0.018
  0.031  0.544  0.019  0.054 -0.055
 -0.002  0.019  0.792 -0.075 -0.318
  0.041  0.054 -0.075  0.383 -0.027
 -0.018 -0.055 -0.318 -0.027  0.456
atomic mag. moment =   2.50930
atom   12   Tr[ns(na)] (up, down, total) =   2.42019  4.93045  7.35064
   spin  1
    eigenvalues:
  0.232  0.237  0.384  0.575  0.991
    eigenvectors:
  0.772  0.172  0.037  0.019  0.000
  0.003  0.000  0.176  0.812  0.008
  0.034  0.211  0.007  0.021  0.727
  0.127  0.066  0.671  0.130  0.005
  0.064  0.550  0.109  0.018  0.259
    occupations:
  0.245 -0.031 -0.003  0.041  0.018
 -0.031  0.544 -0.019 -0.054 -0.055
 -0.003 -0.019  0.794 -0.075  0.317
  0.041 -0.054 -0.075  0.383  0.028
  0.018 -0.055  0.317  0.028  0.454
   spin  2
    eigenvalues:
  0.968  0.984  0.990  0.993  0.994
    eigenvectors:
  0.003  0.212  0.000  0.778  0.007
  0.979  0.013  0.001  0.000  0.007
  0.006  0.001  0.626  0.002  0.366
  0.012  0.725  0.017  0.219  0.026
  0.000  0.049  0.356  0.001  0.593
    occupations:
  0.991 -0.001  0.000 -0.004 -0.001
 -0.001  0.969 -0.002 -0.002  0.001
  0.000 -0.002  0.992  0.000 -0.002
 -0.004 -0.002  0.000  0.986 -0.002
 -0.001  0.001 -0.002 -0.002  0.992
atomic mag. moment =  -2.51027
atom   13   Tr[ns(na)] (up, down, total) =   2.50355  4.92501  7.42856
   spin  1
    eigenvalues:
  0.309  0.325  0.374  0.506  0.990
    eigenvectors:
  0.000  0.430  0.000  0.337  0.232
  0.000  0.435  0.000  0.017  0.548
  0.822  0.000  0.178  0.000  0.000
  0.000  0.135  0.000  0.645  0.220
  0.178  0.000  0.822  0.000  0.000
    occupations:
  0.541 -0.251  0.000 -0.066  0.000
 -0.251  0.692 -0.000  0.212  0.000
  0.000 -0.000  0.321 -0.000  0.025
 -0.066  0.212 -0.000  0.588 -0.000
  0.000  0.000  0.025 -0.000  0.362
   spin  2
    eigenvalues:
  0.973  0.982  0.986  0.991  0.993
    eigenvectors:
  0.382  0.000  0.612  0.007  0.000
  0.030  0.000  0.055  0.915  0.000
  0.000  0.166  0.000  0.000  0.834
  0.588  0.000  0.333  0.079  0.000
  0.000  0.834  0.000  0.000  0.166
    occupations:
  0.981  0.001 -0.000 -0.006  0.000
  0.001  0.990 -0.000  0.003  0.000
 -0.000 -0.000  0.991  0.000 -0.004
 -0.006  0.003  0.000  0.979 -0.000
  0.000  0.000 -0.004 -0.000  0.984
atomic mag. moment =  -2.42146
atom   14   Tr[ns(na)] (up, down, total) =   2.50355  4.92501  7.42856
   spin  1
    eigenvalues:
  0.309  0.325  0.374  0.506  0.990
    eigenvectors:
  0.000  0.430  0.000  0.337  0.232
  0.000  0.435  0.000  0.017  0.548
  0.822  0.000  0.178  0.000  0.000
  0.000  0.135  0.000  0.645  0.220
  0.178  0.000  0.822  0.000  0.000
    occupations:
  0.541 -0.251  0.000 -0.066  0.000
 -0.251  0.692 -0.000  0.212  0.000
  0.000 -0.000  0.321 -0.000  0.025
 -0.066  0.212 -0.000  0.588 -0.000
  0.000  0.000  0.025 -0.000  0.362
   spin  2
    eigenvalues:
  0.973  0.982  0.986  0.991  0.993
    eigenvectors:
  0.382  0.000  0.612  0.007  0.000
  0.030  0.000  0.055  0.915  0.000
  0.000  0.166  0.000  0.000  0.834
  0.588  0.000  0.333  0.079  0.000
  0.000  0.834  0.000  0.000  0.166
    occupations:
  0.981  0.001 -0.000 -0.006  0.000
  0.001  0.990 -0.000  0.003  0.000
 -0.000 -0.000  0.991  0.000 -0.004
 -0.006  0.003  0.000  0.979 -0.000
  0.000  0.000 -0.004 -0.000  0.984
atomic mag. moment =  -2.42146
atom   15   Tr[ns(na)] (up, down, total) =   4.92507  2.50333  7.42840
   spin  1
    eigenvalues:
  0.973  0.982  0.986  0.991  0.993
    eigenvectors:
  0.382  0.000  0.611  0.007  0.000
  0.030  0.000  0.056  0.915  0.000
  0.000  0.166  0.000  0.000  0.834
  0.588  0.000  0.333  0.079  0.000
  0.000  0.834  0.000  0.000  0.166
    occupations:
  0.981 -0.001 -0.000 -0.006  0.000
 -0.001  0.990 -0.000 -0.003  0.000
 -0.000 -0.000  0.991  0.000  0.004
 -0.006 -0.003  0.000  0.979 -0.000
  0.000  0.000  0.004 -0.000  0.984
   spin  2
    eigenvalues:
  0.309  0.325  0.374  0.506  0.990
    eigenvectors:
  0.000  0.430  0.000  0.338  0.232
  0.000  0.435  0.000  0.017  0.547
  0.822  0.000  0.178  0.000  0.000
  0.000  0.135  0.000  0.645  0.220
  0.178  0.000  0.822  0.000  0.000
    occupations:
  0.540  0.251 -0.000 -0.066  0.000
  0.251  0.692 -0.000 -0.212  0.000
 -0.000 -0.000  0.321  0.000 -0.025
 -0.066 -0.212  0.000  0.588 -0.000
  0.000  0.000 -0.025 -0.000  0.362
atomic mag. moment =   2.42174
atom   16   Tr[ns(na)] (up, down, total) =   4.92507  2.50333  7.42840
   spin  1
    eigenvalues:
  0.973  0.982  0.986  0.991  0.993
    eigenvectors:
  0.382  0.000  0.611  0.007  0.000
  0.030  0.000  0.056  0.915  0.000
  0.000  0.166  0.000  0.000  0.834
  0.588  0.000  0.333  0.079  0.000
  0.000  0.834  0.000  0.000  0.166
    occupations:
  0.981 -0.001 -0.000 -0.006  0.000
 -0.001  0.990 -0.000 -0.003  0.000
 -0.000 -0.000  0.991  0.000  0.004
 -0.006 -0.003  0.000  0.979 -0.000
  0.000  0.000  0.004 -0.000  0.984
   spin  2
    eigenvalues:
  0.309  0.325  0.374  0.506  0.990
    eigenvectors:
  0.000  0.430  0.000  0.338  0.232
  0.000  0.435  0.000  0.017  0.547
  0.822  0.000  0.178  0.000  0.000
  0.000  0.135  0.000  0.645  0.220
  0.178  0.000  0.822  0.000  0.000
    occupations:
  0.540  0.251 -0.000 -0.066  0.000
  0.251  0.692 -0.000 -0.212  0.000
 -0.000 -0.000  0.321  0.000 -0.025
 -0.066 -0.212  0.000  0.588 -0.000
  0.000  0.000 -0.025 -0.000  0.362
atomic mag. moment =   2.42174
N of occupied +U levels =   59.116969
 --- exit write_ns ---

 ------ SPIN UP ------------

          k = 0.0000 0.0000 0.0000 ( 46851 PWs)   bands (ev):

   -88.7479 -88.7479 -88.2720 -88.2719 -85.2970 -85.2970 -84.8964 -84.8963
   -52.7187 -52.7187 -52.2007 -52.2006 -51.5940 -51.5940 -51.5423 -51.5423
   -51.3904 -51.3904 -50.8751 -50.8751 -48.8498 -48.8498 -48.5074 -48.5073
   -48.4602 -48.4601 -48.4397 -48.4397 -48.1836 -48.1835 -47.9967 -47.9967
   -23.7337 -23.7295 -23.6960 -23.6918 -23.6869 -23.6825 -23.6542 -23.6497
    -9.1584  -9.0803  -8.6041  -8.5499  -8.4050  -8.3769  -8.2992  -8.2281
    -8.2098  -8.1678  -8.1634  -8.0426  -8.0370  -7.9398  -7.8561  -7.7645
    -7.7492  -7.7446  -7.7131  -7.6243  -6.0675  -6.0196  -5.9896  -5.9540
    -5.8395  -5.7659  -5.7638  -5.7503  -5.7501  -5.7001  -5.6881  -5.6850
    -5.6350  -5.6208  -5.6075  -5.5171  -5.4885  -5.4548  -5.3782  -5.3152
    -5.2736  -5.2723  -5.1996  -5.0705   2.4166   2.4393   2.7726   2.7732
     2.9495   2.9544   3.1001   3.1630   3.2557   3.2671   3.2894   3.3103
     3.3126   3.3578   3.5514   3.5609   3.5986   3.8787   4.3557   4.3605
     4.4674   4.4682   4.5400   4.5530   4.6974   5.0230   5.0428   5.1707
     5.1813   5.2518   5.5415   5.6268   5.6517   5.6903   5.7874   5.8428
     5.8565   5.9910   6.0049   6.0098   6.1274   6.3243   6.3291   6.4513
     6.5414   6.6166   6.6509   6.6750   6.7901   6.8103   6.9132   7.0246
     7.0448   7.0952   7.1194   7.1393   7.2641   7.2651   7.3204   7.3328
     7.3547   7.5598   7.5704   7.5757   7.6032   7.6399   7.7403   7.7852
     7.7866   7.8742   7.8909   7.9402   7.9958   8.0413   8.1504   8.3632
     8.3933   8.4507   8.4928   8.5028   8.7450   8.7504   8.9573   9.0012
     9.8291   9.9393  10.0485  10.0611  10.4709  10.4873  10.5021  10.7323
    10.7897  10.8698  10.9586  10.9816  11.3105  11.3401  12.2536  12.2614
    12.9236  13.6025  14.3183  14.3958  14.4599  14.9365  14.9807  15.2423
    15.3843  15.5489  15.5726  15.6089  15.6500  15.7350  15.7456  16.1066
    16.3427  16.3675  16.4095  16.4752  16.6637  16.7509  16.7713  16.9041
    17.0332  17.1202  17.1388  17.1858  17.2913  17.4297  17.4766  17.5525
    17.6407  17.9870  18.0085  18.0524  18.1832  18.3001  18.3308  18.7219
    18.7271  18.8090  18.9470  18.9944  19.1666  19.2184  19.2601  19.2990
    19.3531  19.3713  19.5957  19.6536  19.6714  20.1003  20.4298  20.8870

[...]

          k =-0.5000 0.0000 0.0000 ( 46884 PWs)   bands (ev):

[...]

 ------ SPIN DOWN ----------

[...]

          k = 0.3333 0.1170-0.5103 ( 46814 PWs)   bands (ev):

[...]

          k =-0.3333-0.1170 0.3402 ( 46820 PWs)   bands (ev):

   -88.7466 -88.7466 -88.2709 -88.2709 -85.2984 -85.2984 -84.8973 -84.8973
   -52.7165 -52.7165 -52.1996 -52.1996 -51.5934 -51.5934 -51.5417 -51.5417
   -51.3889 -51.3889 -50.8744 -50.8744 -48.8516 -48.8516 -48.5083 -48.5083
   -48.4610 -48.4610 -48.4410 -48.4410 -48.1846 -48.1846 -47.9974 -47.9974
   -23.7136 -23.7119 -23.7021 -23.7004 -23.6790 -23.6772 -23.6705 -23.6687
    -8.9501  -8.9152  -8.7619  -8.7157  -8.6024  -8.5655  -8.4637  -8.3683
    -8.2815  -8.2450  -8.1839  -8.1599  -8.0421  -7.9702  -7.9093  -7.8846
    -7.8763  -7.8582  -7.7118  -7.6586  -5.9063  -5.8426  -5.7631  -5.7536
    -5.7379  -5.7371  -5.7027  -5.6795  -5.6638  -5.6556  -5.6007  -5.5421
    -5.5260  -5.5006  -5.4377  -5.4308  -5.3554  -5.3249  -5.3141  -5.2746
    -5.2152  -5.1971  -5.1628  -5.1419   2.4426   2.4494   3.0127   3.0205
     3.0597   3.0711   3.0934   3.1013   3.1776   3.1898   3.2805   3.3028
     3.3440   3.3577   3.4320   3.4399   3.8710   3.9834   4.1257   4.1435
     4.3039   4.3562   4.5207   4.5456   4.7556   4.7909   4.9278   5.1894
     5.2528   5.3165   5.3540   5.4026   5.5436   5.5697   5.6362   5.6666
     5.8991   5.9243   6.0295   6.0474   6.0917   6.1212   6.3296   6.3695
     6.4231   6.4967   6.5998   6.6360   6.6745   6.7393   6.8154   6.8480
     6.8819   6.9528   6.9967   7.0134   7.1666   7.1995   7.2881   7.3229
     7.3720   7.4245   7.4698   7.5408   7.5541   7.6478   7.7030   7.7232
     7.7595   7.8121   7.9038   7.9292   7.9624   7.9882   8.0497   8.1685
     8.2179   8.2558   8.4722   8.5177   8.5906   8.5984   9.0836   9.1042
     9.8995   9.9288  10.1464  10.1974  10.4126  10.4531  10.4903  10.4972
    10.8239  10.9006  11.0207  11.0361  11.3000  11.3684  11.3969  11.4304
    14.2167  14.2564  14.8594  14.8841  15.2652  15.3375  15.5941  15.6586
    15.7816  15.8457  15.8748  15.9228  16.1037  16.2054  16.3861  16.4567
    16.5935  16.5981  16.7341  16.8355  16.8616  16.9591  17.0129  17.0347
    17.1329  17.2214  17.3037  17.3478  17.4499  17.5453  17.6053  17.6977
    17.7798  17.8293  17.8677  17.9336  18.0221  18.0543  18.1745  18.1827
    18.2590  18.3398  18.4021  18.4839  18.7697  18.8765  19.0205  19.1217
    19.3276  19.4522  19.6123  19.8232  20.2443  20.3675  20.5397  20.8399

     the spin up/dw Fermi energies are     9.7839    9.7854 ev

!    total energy              =   -5930.10599804 Ry

     total all-electron energy =    -76179.344563 Ry
     estimated scf accuracy    <       0.00000043 Ry

     The total energy is the sum of the following terms:
     one-electron contribution =   -2180.93592983 Ry
     hartree contribution      =    1272.88858657 Ry
     xc contribution           =    -542.61499987 Ry
     ewald contribution        =   -2054.40570061 Ry
     Hubbard energy            =       0.84580175 Ry
     one-center paw contrib.   =   -2425.88375605 Ry

     total magnetization       =     0.00 Bohr mag/cell
     absolute magnetization    =    25.87 Bohr mag/cell

     convergence has been achieved in   5 iterations

     Writing output data file ./LSCO.save/

     General routines

     Parallel routines

     Hubbard U routines

   This run was terminated on:  19:28:45   2Mar2022

   JOB DONE.